p tw 50 366
e 0 1
e 0 2
e 0 4
e 0 5
e 0 10
e 0 12
e 0 13
e 0 14
e 0 15
e 0 20
e 0 26
e 0 30
e 0 32
e 0 45
e 0 48
e 0 49
e 1 3
e 1 8
e 1 10
e 1 12
e 1 18
e 1 19
e 1 20
e 1 23
e 1 25
e 1 27
e 1 33
e 1 34
e 1 41
e 1 42
e 1 44
e 1 48
e 1 49
e 2 3
e 2 6
e 2 7
e 2 10
e 2 11
e 2 12
e 2 13
e 2 15
e 2 16
e 2 18
e 2 20
e 2 26
e 2 28
e 2 30
e 2 34
e 2 35
e 2 36
e 2 37
e 2 38
e 2 40
e 2 41
e 3 5
e 3 6
e 3 18
e 3 21
e 3 25
e 3 27
e 3 30
e 3 31
e 3 36
e 3 37
e 3 39
e 3 41
e 3 47
e 4 9
e 4 10
e 4 15
e 4 19
e 4 22
e 4 27
e 4 30
e 4 31
e 4 38
e 4 40
e 4 45
e 4 47
e 4 48
e 5 10
e 5 16
e 5 17
e 5 34
e 5 38
e 5 39
e 5 40
e 5 42
e 5 48
e 6 8
e 6 12
e 6 13
e 6 19
e 6 26
e 6 39
e 6 47
e 6 49
e 7 8
e 7 15
e 7 16
e 7 22
e 7 23
e 7 24
e 7 28
e 7 29
e 7 30
e 7 32
e 7 37
e 7 39
e 7 40
e 7 41
e 7 43
e 7 44
e 7 46
e 8 18
e 8 21
e 8 22
e 8 24
e 8 31
e 8 33
e 8 35
e 8 36
e 8 39
e 8 43
e 9 13
e 9 20
e 9 22
e 9 39
e 9 44
e 9 45
e 9 46
e 10 11
e 10 15
e 10 19
e 10 21
e 10 23
e 10 28
e 10 31
e 10 36
e 10 41
e 10 42
e 10 45
e 11 14
e 11 16
e 11 17
e 11 18
e 11 20
e 11 22
e 11 24
e 11 25
e 11 26
e 11 31
e 11 35
e 11 36
e 11 38
e 11 40
e 11 44
e 11 46
e 11 48
e 12 13
e 12 14
e 12 15
e 12 22
e 12 23
e 12 28
e 12 33
e 12 34
e 12 35
e 12 43
e 12 44
e 12 45
e 12 46
e 12 48
e 13 18
e 13 21
e 13 22
e 13 23
e 13 28
e 13 32
e 13 37
e 13 38
e 13 42
e 13 43
e 13 49
e 14 19
e 14 22
e 14 23
e 14 24
e 14 25
e 14 29
e 14 35
e 14 41
e 14 43
e 14 47
e 15 16
e 15 19
e 15 24
e 15 25
e 15 28
e 15 30
e 15 34
e 15 36
e 15 40
e 15 42
e 15 45
e 15 49
e 16 20
e 16 21
e 16 22
e 16 25
e 16 32
e 16 34
e 16 35
e 16 39
e 16 41
e 16 43
e 16 45
e 17 22
e 17 24
e 17 30
e 17 41
e 17 43
e 18 20
e 18 21
e 18 23
e 18 24
e 18 26
e 18 29
e 18 30
e 18 33
e 18 36
e 18 37
e 18 39
e 18 40
e 18 41
e 19 20
e 19 29
e 19 31
e 19 32
e 19 33
e 19 34
e 19 44
e 20 27
e 20 29
e 20 33
e 20 34
e 20 41
e 20 43
e 20 48
e 20 49
e 21 23
e 21 40
e 21 42
e 21 44
e 21 45
e 21 49
e 22 25
e 22 29
e 22 30
e 22 31
e 22 35
e 22 37
e 22 39
e 22 40
e 22 41
e 22 43
e 22 44
e 23 27
e 23 28
e 23 29
e 23 35
e 23 36
e 23 39
e 24 25
e 24 26
e 24 27
e 24 34
e 24 36
e 24 37
e 24 41
e 24 44
e 25 29
e 25 32
e 25 34
e 25 36
e 25 38
e 25 41
e 25 44
e 25 46
e 25 49
e 26 31
e 26 34
e 26 37
e 26 38
e 26 42
e 26 43
e 27 32
e 27 33
e 27 41
e 27 46
e 27 48
e 28 29
e 28 33
e 28 37
e 28 40
e 28 42
e 28 44
e 28 46
e 28 48
e 29 31
e 29 32
e 29 40
e 29 49
e 30 32
e 30 36
e 30 39
e 30 41
e 30 44
e 30 49
e 31 32
e 31 41
e 31 45
e 31 46
e 31 48
e 32 33
e 32 36
e 32 37
e 32 39
e 32 41
e 32 43
e 32 49
e 33 36
e 33 38
e 33 45
e 34 43
e 35 45
e 35 47
e 35 48
e 36 37
e 36 38
e 36 40
e 36 44
e 36 47
e 37 45
e 37 49
e 38 40
e 38 46
e 39 40
e 39 41
e 39 42
e 39 44
e 39 46
e 40 44
e 40 46
e 41 42
e 41 43
e 41 44
e 41 47
e 41 48
e 41 49
e 42 44
e 42 47
e 43 46
e 44 48
e 44 49
e 47 48
